c ind 10 122 125 13 136 138 140 142 147 149 0
c ind 15 151 16 177 25 28 331 39 41 43 0
c ind 45 5 53 6 69 78 9 93 0
p cnf 428 1851
-1 -2 11 0
-1 2 92 0
-100 -52 16 0
-100 52 47 0
-101 -55 16 0
-101 55 102 0
-102 -60 16 0
-102 60 103 0
-103 -64 104 0
-103 64 105 0
-104 -68 16 0
-104 68 47 0
-105 -71 16 0
-105 71 106 0
-106 -74 107 0
-106 74 108 0
-107 -77 16 0
-107 77 47 0
-108 -80 16 0
-108 80 109 0
-109 -83 16 0
-109 83 110 0
-11 -12 14 0
-11 12 17 0
-110 -86 104 0
-110 86 111 0
-111 -88 16 0
-111 88 112 0
-112 -90 107 0
-112 90 47 0
-113 -114 232 0
-113 114 92 0
-114 -22 115 0
-114 22 52 0
-115 -30 16 0
-115 30 116 0
-116 -32 117 0
-116 32 52 0
-117 -118 52 0
-117 118 178 0
-118 -119 126 0
-118 119 132 0
-119 120 123 0
-12 -13 9 0
-12 -9 13 0
-120 -121 0
-121 -122 25 0
-121 -25 122 0
-123 -124 0
-124 -125 28 0
-124 -28 125 0
-126 -127 13 0
-126 127 128 0
-127 -13 28 0
-127 -28 13 0
-128 -129 131 0
-128 129 132 0
-129 120 0
-129 130 0
-130 -13 25 0
-130 -25 13 0
-131 -132 143 0
-131 132 152 0
-132 133 0
-132 141 0
-133 134 0
-133 139 0
-134 135 0
-134 137 0
-135 -136 16 0
-135 -16 136 0
-137 -138 16 0
-137 -16 138 0
-139 -140 16 0
-139 -16 140 0
-14 -15 16 0
-14 -16 15 0
-141 -142 16 0
-141 -16 142 0
-143 -144 16 0
-143 144 132 0
-144 145 0
-144 150 0
-145 146 0
-145 148 0
-146 -13 147 0
-146 -147 13 0
-148 -13 149 0
-148 -149 13 0
-150 -13 151 0
-150 -151 13 0
-152 -153 157 0
-152 153 159 0
-153 141 0
-153 154 0
-154 139 0
-154 155 0
-155 135 0
-155 156 0
-156 -13 138 0
-156 -138 13 0
-157 -158 16 0
-157 158 132 0
-158 -149 16 0
-158 -16 149 0
-159 -160 163 0
-159 160 166 0
-16 0
-160 141 0
-160 161 0
-161 134 0
-161 162 0
-162 -13 140 0
-162 -140 13 0
-163 -164 16 0
-163 164 132 0
-164 145 0
-164 165 0
-165 -151 16 0
-165 -16 151 0
-166 -167 157 0
-166 167 171 0
-167 141 0
-167 168 0
-168 139 0
-168 169 0
-169 156 0
-169 170 0
-17 -18 20 0
-17 18 92 0
-170 -13 136 0
-170 -136 13 0
-171 -172 175 0
-171 172 132 0
-172 141 0
-172 173 0
-173 139 0
-173 174 0
-174 137 0
-174 170 0
-175 -176 13 0
-175 176 132 0
-176 -13 177 0
-176 -177 13 0
-178 -179 52 0
-178 179 191 0
-179 -119 180 0
-179 119 153 0
-18 19 0
-18 3 0
-180 -127 16 0
-180 127 181 0
-181 -129 182 0
-181 129 153 0
-182 -132 183 0
-182 132 184 0
-183 -144 13 0
-183 144 153 0
-184 -153 185 0
-184 153 186 0
-185 -158 16 0
-185 158 153 0
-186 -160 187 0
-186 160 188 0
-187 -164 16 0
-187 164 153 0
-188 -167 185 0
-188 167 189 0
-189 -172 190 0
-189 172 153 0
-19 -13 5 0
-19 -5 13 0
-190 -176 16 0
-190 176 153 0
-191 -192 52 0
-191 192 205 0
-192 -119 193 0
-192 119 160 0
-193 -127 16 0
-193 127 194 0
-194 -129 195 0
-194 129 160 0
-195 -132 196 0
-195 132 197 0
-196 -144 16 0
-196 144 160 0
-197 -153 198 0
-197 153 199 0
-198 -158 13 0
-198 158 160 0
-199 -160 200 0
-199 160 201 0
-2 3 7 0
-20 -21 92 0
-20 21 94 0
-200 -164 16 0
-200 164 160 0
-201 -167 202 0
-201 167 203 0
-202 -158 16 0
-202 158 160 0
-203 -172 204 0
-203 172 160 0
-204 -176 16 0
-204 176 160 0
-205 -206 13 0
-205 206 218 0
-206 -119 207 0
-206 119 167 0
-207 -127 16 0
-207 127 208 0
-208 -129 209 0
-208 129 167 0
-209 -132 210 0
-209 132 211 0
-21 -22 29 0
-21 22 35 0
-210 -144 16 0
-210 144 167 0
-211 -153 212 0
-211 153 213 0
-212 -158 16 0
-212 158 167 0
-213 -160 214 0
-213 160 215 0
-214 -164 13 0
-214 164 167 0
-215 -167 212 0
-215 167 216 0
-216 -172 217 0
-216 172 167 0
-217 -176 16 0
-217 176 167 0
-218 -219 16 0
-218 219 52 0
-219 -119 220 0
-219 119 172 0
-22 23 26 0
-220 -127 16 0
-220 127 221 0
-221 -129 222 0
-221 129 172 0
-222 -132 223 0
-222 132 224 0
-223 -144 16 0
-223 144 172 0
-224 -153 225 0
-224 153 226 0
-225 -158 16 0
-225 158 172 0
-226 -160 227 0
-226 160 228 0
-227 -164 16 0
-227 164 172 0
-228 -167 229 0
-228 167 230 0
-229 -158 13 0
-229 158 172 0
-23 -24 0
-230 -172 231 0
-230 172 172 0
-231 -176 16 0
-231 176 172 0
-232 -13 15 0
-232 -15 13 0
-233 -234 14 0
-233 234 252 0
-234 -22 235 0
-234 22 55 0
-235 -30 16 0
-235 30 236 0
-236 -32 237 0
-236 32 55 0
-237 -35 16 0
-237 35 238 0
-238 -47 239 0
-238 47 240 0
-239 -52 13 0
-239 52 55 0
-24 -25 6 0
-24 -6 25 0
-240 -55 16 0
-240 55 241 0
-241 -60 16 0
-241 60 242 0
-242 -64 243 0
-242 64 244 0
-243 -68 16 0
-243 68 55 0
-244 -71 16 0
-244 71 245 0
-245 -74 246 0
-245 74 247 0
-246 -77 16 0
-246 77 55 0
-247 -80 16 0
-247 80 248 0
-248 -83 16 0
-248 83 249 0
-249 -86 243 0
-249 86 250 0
-250 -88 16 0
-250 88 251 0
-251 -90 246 0
-251 90 55 0
-252 -253 92 0
-252 253 271 0
-253 -22 254 0
-253 22 60 0
-254 -30 16 0
-254 30 255 0
-255 -32 256 0
-255 32 60 0
-256 -35 16 0
-256 35 257 0
-257 -47 258 0
-257 47 259 0
-258 -52 16 0
-258 52 60 0
-259 -55 13 0
-259 55 260 0
-26 -27 0
-260 -60 16 0
-260 60 261 0
-261 -64 262 0
-261 64 263 0
-262 -68 16 0
-262 68 60 0
-263 -71 16 0
-263 71 264 0
-264 -74 265 0
-264 74 266 0
-265 -77 16 0
-265 77 60 0
-266 -80 16 0
-266 80 267 0
-267 -83 16 0
-267 83 268 0
-268 -86 262 0
-268 86 269 0
-269 -88 16 0
-269 88 270 0
-27 -10 28 0
-27 -28 10 0
-270 -90 265 0
-270 90 60 0
-271 -272 92 0
-271 272 290 0
-272 -22 273 0
-272 22 64 0
-273 -30 16 0
-273 30 274 0
-274 -32 275 0
-274 32 64 0
-275 -35 16 0
-275 35 276 0
-276 -47 277 0
-276 47 278 0
-277 -52 16 0
-277 52 64 0
-278 -55 16 0
-278 55 279 0
-279 -60 13 0
-279 60 280 0
-280 -64 281 0
-280 64 282 0
-281 -68 16 0
-281 68 64 0
-282 -71 16 0
-282 71 283 0
-283 -74 284 0
-283 74 285 0
-284 -77 16 0
-284 77 64 0
-285 -80 16 0
-285 80 286 0
-286 -83 16 0
-286 83 287 0
-287 -86 281 0
-287 86 288 0
-288 -88 16 0
-288 88 289 0
-289 -90 284 0
-289 90 64 0
-29 -30 13 0
-29 30 31 0
-290 -291 92 0
-290 291 310 0
-291 -22 292 0
-291 22 71 0
-292 -30 16 0
-292 30 293 0
-293 -32 294 0
-293 32 71 0
-294 -35 16 0
-294 35 295 0
-295 -47 296 0
-295 47 297 0
-296 -52 16 0
-296 52 71 0
-297 -55 16 0
-297 55 298 0
-298 -60 16 0
-298 60 299 0
-299 -64 300 0
-299 64 301 0
-3 -4 0
-30 -10 13 0
-30 -13 10 0
-300 -68 13 0
-300 68 71 0
-301 -71 16 0
-301 71 302 0
-302 -74 303 0
-302 74 304 0
-303 -77 16 0
-303 77 71 0
-304 -80 16 0
-304 80 305 0
-305 -83 16 0
-305 83 306 0
-306 -86 307 0
-306 86 308 0
-307 -68 16 0
-307 68 71 0
-308 -88 16 0
-308 88 309 0
-309 -90 303 0
-309 90 71 0
-31 -32 34 0
-31 32 35 0
-310 -311 329 0
-310 311 332 0
-311 -22 312 0
-311 22 74 0
-312 -30 16 0
-312 30 313 0
-313 -32 314 0
-313 32 74 0
-314 -35 16 0
-314 35 315 0
-315 -47 316 0
-315 47 317 0
-316 -52 16 0
-316 52 74 0
-317 -55 16 0
-317 55 318 0
-318 -60 16 0
-318 60 319 0
-319 -64 320 0
-319 64 321 0
-32 23 0
-32 33 0
-320 -68 16 0
-320 68 74 0
-321 -71 13 0
-321 71 322 0
-322 -74 323 0
-322 74 324 0
-323 -77 16 0
-323 77 74 0
-324 -80 16 0
-324 80 325 0
-325 -83 16 0
-325 83 326 0
-326 -86 320 0
-326 86 327 0
-327 -88 16 0
-327 88 328 0
-328 -90 323 0
-328 90 74 0
-329 -330 232 0
-329 330 92 0
-33 -13 6 0
-33 -6 13 0
-330 -13 331 0
-330 -331 13 0
-332 -333 14 0
-332 333 352 0
-333 -22 334 0
-333 22 80 0
-334 -30 16 0
-334 30 335 0
-335 -32 336 0
-335 32 80 0
-336 -35 16 0
-336 35 337 0
-337 -47 338 0
-337 47 339 0
-338 -52 16 0
-338 52 80 0
-339 -55 16 0
-339 55 340 0
-34 -35 16 0
-34 35 46 0
-340 -60 16 0
-340 60 341 0
-341 -64 342 0
-341 64 343 0
-342 -68 16 0
-342 68 80 0
-343 -71 16 0
-343 71 344 0
-344 -74 345 0
-344 74 346 0
-345 -77 13 0
-345 77 80 0
-346 -80 16 0
-346 80 347 0
-347 -83 16 0
-347 83 348 0
-348 -86 342 0
-348 86 349 0
-349 -88 16 0
-349 88 350 0
-35 36 0
-35 44 0
-350 -90 351 0
-350 90 80 0
-351 -77 16 0
-351 77 80 0
-352 -353 92 0
-352 353 371 0
-353 -22 354 0
-353 22 83 0
-354 -30 16 0
-354 30 355 0
-355 -32 356 0
-355 32 83 0
-356 -35 16 0
-356 35 357 0
-357 -47 358 0
-357 47 359 0
-358 -52 16 0
-358 52 83 0
-359 -55 16 0
-359 55 360 0
-36 37 0
-36 42 0
-360 -60 16 0
-360 60 361 0
-361 -64 362 0
-361 64 363 0
-362 -68 16 0
-362 68 83 0
-363 -71 16 0
-363 71 364 0
-364 -74 365 0
-364 74 366 0
-365 -77 16 0
-365 77 83 0
-366 -80 13 0
-366 80 367 0
-367 -83 16 0
-367 83 368 0
-368 -86 362 0
-368 86 369 0
-369 -88 16 0
-369 88 370 0
-37 38 0
-37 40 0
-370 -90 365 0
-370 90 83 0
-371 -372 92 0
-371 372 390 0
-372 -22 373 0
-372 22 86 0
-373 -30 16 0
-373 30 374 0
-374 -32 375 0
-374 32 86 0
-375 -35 16 0
-375 35 376 0
-376 -47 377 0
-376 47 378 0
-377 -52 16 0
-377 52 86 0
-378 -55 16 0
-378 55 379 0
-379 -60 16 0
-379 60 380 0
-38 -16 39 0
-38 -39 16 0
-380 -64 381 0
-380 64 382 0
-381 -68 16 0
-381 68 86 0
-382 -71 16 0
-382 71 383 0
-383 -74 384 0
-383 74 385 0
-384 -77 16 0
-384 77 86 0
-385 -80 16 0
-385 80 386 0
-386 -83 13 0
-386 83 387 0
-387 -86 381 0
-387 86 388 0
-388 -88 16 0
-388 88 389 0
-389 -90 384 0
-389 90 86 0
-390 -391 92 0
-390 391 410 0
-391 -22 392 0
-391 22 88 0
-392 -30 16 0
-392 30 393 0
-393 -32 394 0
-393 32 88 0
-394 -35 16 0
-394 35 395 0
-395 -47 396 0
-395 47 397 0
-396 -52 16 0
-396 52 88 0
-397 -55 16 0
-397 55 398 0
-398 -60 16 0
-398 60 399 0
-399 -64 400 0
-399 64 401 0
-4 -5 6 0
-4 -6 5 0
-40 -16 41 0
-40 -41 16 0
-400 -68 16 0
-400 68 88 0
-401 -71 16 0
-401 71 402 0
-402 -74 403 0
-402 74 404 0
-403 -77 16 0
-403 77 88 0
-404 -80 16 0
-404 80 405 0
-405 -83 16 0
-405 83 406 0
-406 -86 407 0
-406 86 408 0
-407 -68 13 0
-407 68 88 0
-408 -88 16 0
-408 88 409 0
-409 -90 403 0
-409 90 88 0
-410 -411 92 0
-410 411 14 0
-411 -22 412 0
-411 22 90 0
-412 -30 16 0
-412 30 413 0
-413 -32 414 0
-413 32 90 0
-414 -35 16 0
-414 35 415 0
-415 -47 416 0
-415 47 417 0
-416 -52 16 0
-416 52 90 0
-417 -55 16 0
-417 55 418 0
-418 -60 16 0
-418 60 419 0
-419 -64 420 0
-419 64 421 0
-42 -16 43 0
-42 -43 16 0
-420 -68 16 0
-420 68 90 0
-421 -71 16 0
-421 71 422 0
-422 -74 423 0
-422 74 424 0
-423 -77 16 0
-423 77 90 0
-424 -80 16 0
-424 80 425 0
-425 -83 16 0
-425 83 426 0
-426 -86 420 0
-426 86 427 0
-427 -88 13 0
-427 88 428 0
-428 -90 423 0
-428 90 90 0
-44 -16 45 0
-44 -45 16 0
-46 -47 51 0
-46 47 54 0
-47 44 0
-47 48 0
-48 42 0
-48 49 0
-49 40 0
-49 50 0
-50 -13 39 0
-50 -39 13 0
-51 -52 16 0
-51 52 35 0
-52 -13 53 0
-52 -53 13 0
-54 -55 16 0
-54 55 59 0
-55 44 0
-55 56 0
-56 42 0
-56 57 0
-57 38 0
-57 58 0
-58 -13 41 0
-58 -41 13 0
-59 -60 16 0
-59 60 63 0
-60 44 0
-60 61 0
-61 42 0
-61 62 0
-62 50 0
-62 58 0
-63 -64 67 0
-63 64 70 0
-64 44 0
-64 65 0
-65 37 0
-65 66 0
-66 -13 43 0
-66 -43 13 0
-67 -68 16 0
-67 68 35 0
-68 -13 69 0
-68 -69 13 0
-7 -8 0
-70 -71 16 0
-70 71 73 0
-71 44 0
-71 72 0
-72 49 0
-72 66 0
-73 -74 76 0
-73 74 79 0
-74 56 0
-74 75 0
-75 -13 45 0
-75 -45 13 0
-76 -77 16 0
-76 77 35 0
-77 -13 78 0
-77 -78 13 0
-79 -80 16 0
-79 80 82 0
-8 -10 9 0
-8 -9 10 0
-80 44 0
-80 81 0
-81 57 0
-81 66 0
-82 -83 16 0
-82 83 85 0
-83 44 0
-83 84 0
-84 62 0
-84 66 0
-85 -86 67 0
-85 86 87 0
-86 36 0
-86 75 0
-87 -88 16 0
-87 88 89 0
-88 48 0
-88 75 0
-89 -90 91 0
-89 90 35 0
-90 61 0
-90 75 0
-91 -77 13 0
-91 77 35 0
-92 -15 93 0
-92 -93 15 0
-94 -95 113 0
-94 95 233 0
-95 -22 96 0
-95 22 47 0
-96 -30 16 0
-96 30 97 0
-97 -32 98 0
-97 32 47 0
-98 -35 13 0
-98 35 99 0
-99 -47 100 0
-99 47 101 0
1 -11 -92 0
1 -2 -11 0
1 0
1 2 -92 0
100 -16 -47 0
100 -52 -16 0
100 52 -47 0
101 -16 -102 0
101 -55 -16 0
101 55 -102 0
102 -16 -103 0
102 -60 -16 0
102 60 -103 0
103 -104 -105 0
103 -64 -104 0
103 64 -105 0
104 -16 -47 0
104 -68 -16 0
104 68 -47 0
105 -16 -106 0
105 -71 -16 0
105 71 -106 0
106 -107 -108 0
106 -74 -107 0
106 74 -108 0
107 -16 -47 0
107 -77 -16 0
107 77 -47 0
108 -16 -109 0
108 -80 -16 0
108 80 -109 0
109 -16 -110 0
109 -83 -16 0
109 83 -110 0
11 -12 -14 0
11 -14 -17 0
11 12 -17 0
110 -104 -111 0
110 -86 -104 0
110 86 -111 0
111 -16 -112 0
111 -88 -16 0
111 88 -112 0
112 -107 -47 0
112 -90 -107 0
112 90 -47 0
113 -114 -232 0
113 -232 -92 0
113 114 -92 0
114 -115 -52 0
114 -22 -115 0
114 22 -52 0
115 -16 -116 0
115 -30 -16 0
115 30 -116 0
116 -117 -52 0
116 -32 -117 0
116 32 -52 0
117 -118 -52 0
117 -52 -178 0
117 118 -178 0
118 -119 -126 0
118 -126 -132 0
118 119 -132 0
119 -120 0
119 -123 0
12 -9 -13 0
12 9 13 0
120 121 0
121 -25 -122 0
121 25 122 0
123 124 0
124 -28 -125 0
124 28 125 0
126 -127 -13 0
126 -13 -128 0
126 127 -128 0
127 -28 -13 0
127 28 13 0
128 -129 -131 0
128 -131 -132 0
128 129 -132 0
129 -120 -130 0
13 0
130 -25 -13 0
130 25 13 0
131 -132 -143 0
131 -143 -152 0
131 132 -152 0
132 -133 -141 0
133 -134 -139 0
134 -135 -137 0
135 -136 -16 0
135 136 16 0
137 -138 -16 0
137 138 16 0
139 -140 -16 0
139 140 16 0
14 -15 -16 0
14 15 16 0
141 -142 -16 0
141 142 16 0
143 -144 -16 0
143 -16 -132 0
143 144 -132 0
144 -145 -150 0
145 -146 -148 0
146 -147 -13 0
146 147 13 0
148 -149 -13 0
148 149 13 0
150 -151 -13 0
150 151 13 0
152 -153 -157 0
152 -157 -159 0
152 153 -159 0
153 -154 -141 0
154 -155 -139 0
155 -135 -156 0
156 -138 -13 0
156 138 13 0
157 -158 -16 0
157 -16 -132 0
157 158 -132 0
158 -149 -16 0
158 149 16 0
159 -160 -163 0
159 -163 -166 0
159 160 -166 0
160 -161 -141 0
161 -134 -162 0
162 -140 -13 0
162 140 13 0
163 -16 -132 0
163 -164 -16 0
163 164 -132 0
164 -145 -165 0
165 -151 -16 0
165 151 16 0
166 -157 -171 0
166 -167 -157 0
166 167 -171 0
167 -168 -141 0
168 -169 -139 0
169 -170 -156 0
17 -18 -20 0
17 -20 -92 0
17 18 -92 0
170 -136 -13 0
170 136 13 0
171 -172 -175 0
171 -175 -132 0
171 172 -132 0
172 -173 -141 0
173 -174 -139 0
174 -170 -137 0
175 -13 -132 0
175 -176 -13 0
175 176 -132 0
176 -177 -13 0
176 177 13 0
178 -179 -52 0
178 -52 -191 0
178 179 -191 0
179 -119 -180 0
179 -180 -153 0
179 119 -153 0
18 -3 -19 0
180 -127 -16 0
180 -16 -181 0
180 127 -181 0
181 -129 -182 0
181 -182 -153 0
181 129 -153 0
182 -132 -183 0
182 -183 -184 0
182 132 -184 0
183 -13 -153 0
183 -144 -13 0
183 144 -153 0
184 -153 -185 0
184 -185 -186 0
184 153 -186 0
185 -158 -16 0
185 -16 -153 0
185 158 -153 0
186 -160 -187 0
186 -187 -188 0
186 160 -188 0
187 -16 -153 0
187 -164 -16 0
187 164 -153 0
188 -167 -185 0
188 -185 -189 0
188 167 -189 0
189 -172 -190 0
189 -190 -153 0
189 172 -153 0
19 -5 -13 0
19 5 13 0
190 -16 -153 0
190 -176 -16 0
190 176 -153 0
191 -192 -52 0
191 -52 -205 0
191 192 -205 0
192 -119 -193 0
192 -193 -160 0
192 119 -160 0
193 -127 -16 0
193 -16 -194 0
193 127 -194 0
194 -129 -195 0
194 -195 -160 0
194 129 -160 0
195 -132 -196 0
195 -196 -197 0
195 132 -197 0
196 -144 -16 0
196 -16 -160 0
196 144 -160 0
197 -153 -198 0
197 -198 -199 0
197 153 -199 0
198 -13 -160 0
198 -158 -13 0
198 158 -160 0
199 -160 -200 0
199 -200 -201 0
199 160 -201 0
2 -3 0
2 -7 0
20 -21 -92 0
20 -92 -94 0
20 21 -94 0
200 -16 -160 0
200 -164 -16 0
200 164 -160 0
201 -167 -202 0
201 -202 -203 0
201 167 -203 0
202 -158 -16 0
202 -16 -160 0
202 158 -160 0
203 -172 -204 0
203 -204 -160 0
203 172 -160 0
204 -16 -160 0
204 -176 -16 0
204 176 -160 0
205 -13 -218 0
205 -206 -13 0
205 206 -218 0
206 -119 -207 0
206 -207 -167 0
206 119 -167 0
207 -127 -16 0
207 -16 -208 0
207 127 -208 0
208 -129 -209 0
208 -209 -167 0
208 129 -167 0
209 -132 -210 0
209 -210 -211 0
209 132 -211 0
21 -22 -29 0
21 -29 -35 0
21 22 -35 0
210 -144 -16 0
210 -16 -167 0
210 144 -167 0
211 -153 -212 0
211 -212 -213 0
211 153 -213 0
212 -158 -16 0
212 -16 -167 0
212 158 -167 0
213 -160 -214 0
213 -214 -215 0
213 160 -215 0
214 -13 -167 0
214 -164 -13 0
214 164 -167 0
215 -167 -212 0
215 -212 -216 0
215 167 -216 0
216 -172 -217 0
216 -217 -167 0
216 172 -167 0
217 -16 -167 0
217 -176 -16 0
217 176 -167 0
218 -16 -52 0
218 -219 -16 0
218 219 -52 0
219 -119 -220 0
219 -220 -172 0
219 119 -172 0
22 -23 0
22 -26 0
220 -127 -16 0
220 -16 -221 0
220 127 -221 0
221 -129 -222 0
221 -222 -172 0
221 129 -172 0
222 -132 -223 0
222 -223 -224 0
222 132 -224 0
223 -144 -16 0
223 -16 -172 0
223 144 -172 0
224 -153 -225 0
224 -225 -226 0
224 153 -226 0
225 -158 -16 0
225 -16 -172 0
225 158 -172 0
226 -160 -227 0
226 -227 -228 0
226 160 -228 0
227 -16 -172 0
227 -164 -16 0
227 164 -172 0
228 -167 -229 0
228 -229 -230 0
228 167 -230 0
229 -13 -172 0
229 -158 -13 0
229 158 -172 0
23 24 0
230 -172 -231 0
230 -231 -172 0
230 172 -172 0
231 -16 -172 0
231 -176 -16 0
231 176 -172 0
232 -15 -13 0
232 15 13 0
233 -14 -252 0
233 -234 -14 0
233 234 -252 0
234 -22 -235 0
234 -235 -55 0
234 22 -55 0
235 -16 -236 0
235 -30 -16 0
235 30 -236 0
236 -237 -55 0
236 -32 -237 0
236 32 -55 0
237 -16 -238 0
237 -35 -16 0
237 35 -238 0
238 -239 -240 0
238 -47 -239 0
238 47 -240 0
239 -13 -55 0
239 -52 -13 0
239 52 -55 0
24 -6 -25 0
24 6 25 0
240 -16 -241 0
240 -55 -16 0
240 55 -241 0
241 -16 -242 0
241 -60 -16 0
241 60 -242 0
242 -243 -244 0
242 -64 -243 0
242 64 -244 0
243 -16 -55 0
243 -68 -16 0
243 68 -55 0
244 -16 -245 0
244 -71 -16 0
244 71 -245 0
245 -246 -247 0
245 -74 -246 0
245 74 -247 0
246 -16 -55 0
246 -77 -16 0
246 77 -55 0
247 -16 -248 0
247 -80 -16 0
247 80 -248 0
248 -16 -249 0
248 -83 -16 0
248 83 -249 0
249 -243 -250 0
249 -86 -243 0
249 86 -250 0
250 -16 -251 0
250 -88 -16 0
250 88 -251 0
251 -246 -55 0
251 -90 -246 0
251 90 -55 0
252 -253 -92 0
252 -92 -271 0
252 253 -271 0
253 -22 -254 0
253 -254 -60 0
253 22 -60 0
254 -16 -255 0
254 -30 -16 0
254 30 -255 0
255 -256 -60 0
255 -32 -256 0
255 32 -60 0
256 -16 -257 0
256 -35 -16 0
256 35 -257 0
257 -258 -259 0
257 -47 -258 0
257 47 -259 0
258 -16 -60 0
258 -52 -16 0
258 52 -60 0
259 -13 -260 0
259 -55 -13 0
259 55 -260 0
26 27 0
260 -16 -261 0
260 -60 -16 0
260 60 -261 0
261 -262 -263 0
261 -64 -262 0
261 64 -263 0
262 -16 -60 0
262 -68 -16 0
262 68 -60 0
263 -16 -264 0
263 -71 -16 0
263 71 -264 0
264 -265 -266 0
264 -74 -265 0
264 74 -266 0
265 -16 -60 0
265 -77 -16 0
265 77 -60 0
266 -16 -267 0
266 -80 -16 0
266 80 -267 0
267 -16 -268 0
267 -83 -16 0
267 83 -268 0
268 -262 -269 0
268 -86 -262 0
268 86 -269 0
269 -16 -270 0
269 -88 -16 0
269 88 -270 0
27 -10 -28 0
27 10 28 0
270 -265 -60 0
270 -90 -265 0
270 90 -60 0
271 -272 -92 0
271 -92 -290 0
271 272 -290 0
272 -22 -273 0
272 -273 -64 0
272 22 -64 0
273 -16 -274 0
273 -30 -16 0
273 30 -274 0
274 -275 -64 0
274 -32 -275 0
274 32 -64 0
275 -16 -276 0
275 -35 -16 0
275 35 -276 0
276 -277 -278 0
276 -47 -277 0
276 47 -278 0
277 -16 -64 0
277 -52 -16 0
277 52 -64 0
278 -16 -279 0
278 -55 -16 0
278 55 -279 0
279 -13 -280 0
279 -60 -13 0
279 60 -280 0
280 -281 -282 0
280 -64 -281 0
280 64 -282 0
281 -16 -64 0
281 -68 -16 0
281 68 -64 0
282 -16 -283 0
282 -71 -16 0
282 71 -283 0
283 -284 -285 0
283 -74 -284 0
283 74 -285 0
284 -16 -64 0
284 -77 -16 0
284 77 -64 0
285 -16 -286 0
285 -80 -16 0
285 80 -286 0
286 -16 -287 0
286 -83 -16 0
286 83 -287 0
287 -281 -288 0
287 -86 -281 0
287 86 -288 0
288 -16 -289 0
288 -88 -16 0
288 88 -289 0
289 -284 -64 0
289 -90 -284 0
289 90 -64 0
29 -13 -31 0
29 -30 -13 0
29 30 -31 0
290 -291 -92 0
290 -92 -310 0
290 291 -310 0
291 -22 -292 0
291 -292 -71 0
291 22 -71 0
292 -16 -293 0
292 -30 -16 0
292 30 -293 0
293 -294 -71 0
293 -32 -294 0
293 32 -71 0
294 -16 -295 0
294 -35 -16 0
294 35 -295 0
295 -296 -297 0
295 -47 -296 0
295 47 -297 0
296 -16 -71 0
296 -52 -16 0
296 52 -71 0
297 -16 -298 0
297 -55 -16 0
297 55 -298 0
298 -16 -299 0
298 -60 -16 0
298 60 -299 0
299 -300 -301 0
299 -64 -300 0
299 64 -301 0
3 4 0
30 -10 -13 0
30 10 13 0
300 -13 -71 0
300 -68 -13 0
300 68 -71 0
301 -16 -302 0
301 -71 -16 0
301 71 -302 0
302 -303 -304 0
302 -74 -303 0
302 74 -304 0
303 -16 -71 0
303 -77 -16 0
303 77 -71 0
304 -16 -305 0
304 -80 -16 0
304 80 -305 0
305 -16 -306 0
305 -83 -16 0
305 83 -306 0
306 -307 -308 0
306 -86 -307 0
306 86 -308 0
307 -16 -71 0
307 -68 -16 0
307 68 -71 0
308 -16 -309 0
308 -88 -16 0
308 88 -309 0
309 -303 -71 0
309 -90 -303 0
309 90 -71 0
31 -32 -34 0
31 -34 -35 0
31 32 -35 0
310 -311 -329 0
310 -329 -332 0
310 311 -332 0
311 -22 -312 0
311 -312 -74 0
311 22 -74 0
312 -16 -313 0
312 -30 -16 0
312 30 -313 0
313 -314 -74 0
313 -32 -314 0
313 32 -74 0
314 -16 -315 0
314 -35 -16 0
314 35 -315 0
315 -316 -317 0
315 -47 -316 0
315 47 -317 0
316 -16 -74 0
316 -52 -16 0
316 52 -74 0
317 -16 -318 0
317 -55 -16 0
317 55 -318 0
318 -16 -319 0
318 -60 -16 0
318 60 -319 0
319 -320 -321 0
319 -64 -320 0
319 64 -321 0
32 -23 -33 0
320 -16 -74 0
320 -68 -16 0
320 68 -74 0
321 -13 -322 0
321 -71 -13 0
321 71 -322 0
322 -323 -324 0
322 -74 -323 0
322 74 -324 0
323 -16 -74 0
323 -77 -16 0
323 77 -74 0
324 -16 -325 0
324 -80 -16 0
324 80 -325 0
325 -16 -326 0
325 -83 -16 0
325 83 -326 0
326 -320 -327 0
326 -86 -320 0
326 86 -327 0
327 -16 -328 0
327 -88 -16 0
327 88 -328 0
328 -323 -74 0
328 -90 -323 0
328 90 -74 0
329 -232 -92 0
329 -330 -232 0
329 330 -92 0
33 -6 -13 0
33 6 13 0
330 -331 -13 0
330 331 13 0
332 -14 -352 0
332 -333 -14 0
332 333 -352 0
333 -22 -334 0
333 -334 -80 0
333 22 -80 0
334 -16 -335 0
334 -30 -16 0
334 30 -335 0
335 -32 -336 0
335 -336 -80 0
335 32 -80 0
336 -16 -337 0
336 -35 -16 0
336 35 -337 0
337 -338 -339 0
337 -47 -338 0
337 47 -339 0
338 -16 -80 0
338 -52 -16 0
338 52 -80 0
339 -16 -340 0
339 -55 -16 0
339 55 -340 0
34 -16 -46 0
34 -35 -16 0
34 35 -46 0
340 -16 -341 0
340 -60 -16 0
340 60 -341 0
341 -342 -343 0
341 -64 -342 0
341 64 -343 0
342 -16 -80 0
342 -68 -16 0
342 68 -80 0
343 -16 -344 0
343 -71 -16 0
343 71 -344 0
344 -345 -346 0
344 -74 -345 0
344 74 -346 0
345 -13 -80 0
345 -77 -13 0
345 77 -80 0
346 -16 -347 0
346 -80 -16 0
346 80 -347 0
347 -16 -348 0
347 -83 -16 0
347 83 -348 0
348 -342 -349 0
348 -86 -342 0
348 86 -349 0
349 -16 -350 0
349 -88 -16 0
349 88 -350 0
35 -36 -44 0
350 -351 -80 0
350 -90 -351 0
350 90 -80 0
351 -16 -80 0
351 -77 -16 0
351 77 -80 0
352 -353 -92 0
352 -92 -371 0
352 353 -371 0
353 -22 -354 0
353 -354 -83 0
353 22 -83 0
354 -16 -355 0
354 -30 -16 0
354 30 -355 0
355 -32 -356 0
355 -356 -83 0
355 32 -83 0
356 -16 -357 0
356 -35 -16 0
356 35 -357 0
357 -358 -359 0
357 -47 -358 0
357 47 -359 0
358 -16 -83 0
358 -52 -16 0
358 52 -83 0
359 -16 -360 0
359 -55 -16 0
359 55 -360 0
36 -37 -42 0
360 -16 -361 0
360 -60 -16 0
360 60 -361 0
361 -362 -363 0
361 -64 -362 0
361 64 -363 0
362 -16 -83 0
362 -68 -16 0
362 68 -83 0
363 -16 -364 0
363 -71 -16 0
363 71 -364 0
364 -365 -366 0
364 -74 -365 0
364 74 -366 0
365 -16 -83 0
365 -77 -16 0
365 77 -83 0
366 -13 -367 0
366 -80 -13 0
366 80 -367 0
367 -16 -368 0
367 -83 -16 0
367 83 -368 0
368 -362 -369 0
368 -86 -362 0
368 86 -369 0
369 -16 -370 0
369 -88 -16 0
369 88 -370 0
37 -38 -40 0
370 -365 -83 0
370 -90 -365 0
370 90 -83 0
371 -372 -92 0
371 -92 -390 0
371 372 -390 0
372 -22 -373 0
372 -373 -86 0
372 22 -86 0
373 -16 -374 0
373 -30 -16 0
373 30 -374 0
374 -32 -375 0
374 -375 -86 0
374 32 -86 0
375 -16 -376 0
375 -35 -16 0
375 35 -376 0
376 -377 -378 0
376 -47 -377 0
376 47 -378 0
377 -16 -86 0
377 -52 -16 0
377 52 -86 0
378 -16 -379 0
378 -55 -16 0
378 55 -379 0
379 -16 -380 0
379 -60 -16 0
379 60 -380 0
38 -39 -16 0
38 39 16 0
380 -381 -382 0
380 -64 -381 0
380 64 -382 0
381 -16 -86 0
381 -68 -16 0
381 68 -86 0
382 -16 -383 0
382 -71 -16 0
382 71 -383 0
383 -384 -385 0
383 -74 -384 0
383 74 -385 0
384 -16 -86 0
384 -77 -16 0
384 77 -86 0
385 -16 -386 0
385 -80 -16 0
385 80 -386 0
386 -13 -387 0
386 -83 -13 0
386 83 -387 0
387 -381 -388 0
387 -86 -381 0
387 86 -388 0
388 -16 -389 0
388 -88 -16 0
388 88 -389 0
389 -384 -86 0
389 -90 -384 0
389 90 -86 0
390 -391 -92 0
390 -92 -410 0
390 391 -410 0
391 -22 -392 0
391 -392 -88 0
391 22 -88 0
392 -16 -393 0
392 -30 -16 0
392 30 -393 0
393 -32 -394 0
393 -394 -88 0
393 32 -88 0
394 -16 -395 0
394 -35 -16 0
394 35 -395 0
395 -396 -397 0
395 -47 -396 0
395 47 -397 0
396 -16 -88 0
396 -52 -16 0
396 52 -88 0
397 -16 -398 0
397 -55 -16 0
397 55 -398 0
398 -16 -399 0
398 -60 -16 0
398 60 -399 0
399 -400 -401 0
399 -64 -400 0
399 64 -401 0
4 -5 -6 0
4 5 6 0
40 -41 -16 0
40 41 16 0
400 -16 -88 0
400 -68 -16 0
400 68 -88 0
401 -16 -402 0
401 -71 -16 0
401 71 -402 0
402 -403 -404 0
402 -74 -403 0
402 74 -404 0
403 -16 -88 0
403 -77 -16 0
403 77 -88 0
404 -16 -405 0
404 -80 -16 0
404 80 -405 0
405 -16 -406 0
405 -83 -16 0
405 83 -406 0
406 -407 -408 0
406 -86 -407 0
406 86 -408 0
407 -13 -88 0
407 -68 -13 0
407 68 -88 0
408 -16 -409 0
408 -88 -16 0
408 88 -409 0
409 -403 -88 0
409 -90 -403 0
409 90 -88 0
410 -411 -92 0
410 -92 -14 0
410 411 -14 0
411 -22 -412 0
411 -412 -90 0
411 22 -90 0
412 -16 -413 0
412 -30 -16 0
412 30 -413 0
413 -32 -414 0
413 -414 -90 0
413 32 -90 0
414 -16 -415 0
414 -35 -16 0
414 35 -415 0
415 -416 -417 0
415 -47 -416 0
415 47 -417 0
416 -16 -90 0
416 -52 -16 0
416 52 -90 0
417 -16 -418 0
417 -55 -16 0
417 55 -418 0
418 -16 -419 0
418 -60 -16 0
418 60 -419 0
419 -420 -421 0
419 -64 -420 0
419 64 -421 0
42 -43 -16 0
42 43 16 0
420 -16 -90 0
420 -68 -16 0
420 68 -90 0
421 -16 -422 0
421 -71 -16 0
421 71 -422 0
422 -423 -424 0
422 -74 -423 0
422 74 -424 0
423 -16 -90 0
423 -77 -16 0
423 77 -90 0
424 -16 -425 0
424 -80 -16 0
424 80 -425 0
425 -16 -426 0
425 -83 -16 0
425 83 -426 0
426 -420 -427 0
426 -86 -420 0
426 86 -427 0
427 -13 -428 0
427 -88 -13 0
427 88 -428 0
428 -423 -90 0
428 -90 -423 0
428 90 -90 0
44 -45 -16 0
44 45 16 0
46 -47 -51 0
46 -51 -54 0
46 47 -54 0
47 -48 -44 0
48 -49 -42 0
49 -50 -40 0
50 -39 -13 0
50 39 13 0
51 -16 -35 0
51 -52 -16 0
51 52 -35 0
52 -53 -13 0
52 53 13 0
54 -16 -59 0
54 -55 -16 0
54 55 -59 0
55 -56 -44 0
56 -57 -42 0
57 -38 -58 0
58 -41 -13 0
58 41 13 0
59 -16 -63 0
59 -60 -16 0
59 60 -63 0
60 -61 -44 0
61 -62 -42 0
62 -50 -58 0
63 -64 -67 0
63 -67 -70 0
63 64 -70 0
64 -65 -44 0
65 -37 -66 0
66 -43 -13 0
66 43 13 0
67 -16 -35 0
67 -68 -16 0
67 68 -35 0
68 -69 -13 0
68 69 13 0
7 8 0
70 -16 -73 0
70 -71 -16 0
70 71 -73 0
71 -72 -44 0
72 -49 -66 0
73 -74 -76 0
73 -76 -79 0
73 74 -79 0
74 -56 -75 0
75 -45 -13 0
75 45 13 0
76 -16 -35 0
76 -77 -16 0
76 77 -35 0
77 -78 -13 0
77 78 13 0
79 -16 -82 0
79 -80 -16 0
79 80 -82 0
8 -9 -10 0
8 9 10 0
80 -81 -44 0
81 -57 -66 0
82 -16 -85 0
82 -83 -16 0
82 83 -85 0
83 -84 -44 0
84 -62 -66 0
85 -67 -87 0
85 -86 -67 0
85 86 -87 0
86 -36 -75 0
87 -16 -89 0
87 -88 -16 0
87 88 -89 0
88 -48 -75 0
89 -90 -91 0
89 -91 -35 0
89 90 -35 0
90 -61 -75 0
91 -13 -35 0
91 -77 -13 0
91 77 -35 0
92 -15 -93 0
92 15 93 0
94 -113 -233 0
94 -95 -113 0
94 95 -233 0
95 -22 -96 0
95 -96 -47 0
95 22 -47 0
96 -16 -97 0
96 -30 -16 0
96 30 -97 0
97 -32 -98 0
97 -98 -47 0
97 32 -47 0
98 -13 -99 0
98 -35 -13 0
98 35 -99 0
99 -100 -101 0
99 -47 -100 0
99 47 -101 0
